4728307169086323195507,13,1,2,03,11,1,2,04,8,1,2,01,6,1,2,08,7,1,2,013,13,1,2,015,15,1,2,012,8,1,2,01,7,1,2,012,14,1,2,02,10,1,2,010,9,1,2,06,13,1,2,013,15,1,2,010,11,1,2,03,14,1,2,07,2,1,2,05,1,1,2,08,6,1,2,09,1,1,2,010,11,1,2,013,5,1,2,010,6,1,2,02,10,1,2,013,14,1,2,011,11,1,2,08,6,1,2,05,6,1,2,013,14,1,2,011,6,1,2,07,2,1,2,01,7,1,2,04,13,1,2,03,12,1,2,013,5,1,2,012,5,1,2,04,4,1,2,05,1,1,2,08,1,1,2,012,13,1,2,02,8,1,2,012,15,1,2,04,12,1,2,010,12,1,2,01,7,1,2,07,4,1,2,05,2,1,2,07,2,1,2,04,12,1,2,03,12,1,2,0